164	32	4	148	
10	10	10	10

0	0	0	0	0	0	1	1
1	0	1	1	1	4	1	2
2	0	1	4	8	9	2	13	3
3	0	5	4	6	8	1	4
4	1	0	3	5	2	1	5
5	3	4	0	3	8	1	6
6	3	0	4	3	5	1	7
7	0	2	7	7	1	1	8
8	5	6	3	0	6	1	9
9	2	2	0	8	10	1	10
10	5	5	0	1	6	1	11
11	0	3	6	2	3	1	12
12	0	5	1	4	6	1	14
13	3	7	0	5	2	1	14
14	0	2	9	7	9	1	15
15	4	6	5	0	1	1	16
16	6	3	0	4	6	1	17
17	5	2	3	0	9	1	18
18	2	5	0	3	8	1	19
19	3	0	3	4	1	2	21	20
20	7	0	5	4	6	2	26	22
21	5	0	5	4	5	2	26	24
22	6	3	4	0	2	1	23
23	5	3	4	0	6	1	24
24	3	2	0	3	8	1	25
25	3	10	0	1	4	1	27
26	0	3	4	3	9	1	27
27	0	3	4	4	8	1	28
28	5	3	0	4	5	1	29
29	0	9	2	2	4	1	30
30	4	5	3	0	3	1	31
31	0	0	0	0	0	0
